
List of user-set options:

                                    Name   Value                used
                        file_print_level = 5                     yes
                   hessian_approximation = limited-memory        yes
                           linear_solver = mumps                 yes
                                max_iter = 500                   yes
                             output_file = IPOPT.out             yes
                             print_level = 0                     yes
                      print_user_options = yes                   yes
                                      sb = yes                   yes
This is Ipopt version 3.14.7, running with linear solver MUMPS 5.4.1.

Number of nonzeros in equality constraint Jacobian...:        0
Number of nonzeros in inequality constraint Jacobian.:      900
Number of nonzeros in Lagrangian Hessian.............:        0

Total number of variables............................:        9
                     variables with only lower bounds:        1
                variables with lower and upper bounds:        0
                     variables with only upper bounds:        0
Total number of equality constraints.................:        0
Total number of inequality constraints...............:      100
        inequality constraints with only lower bounds:        0
   inequality constraints with lower and upper bounds:       50
        inequality constraints with only upper bounds:       50

iter    objective    inf_pr   inf_du lg(mu)  ||d||  lg(rg) alpha_du alpha_pr  ls
   0  1.0000000e-01 2.76e+01 1.36e+00   0.0 0.00e+00    -  0.00e+00 0.00e+00   0
   1  1.2388704e-01 2.27e+01 1.74e+02   0.1 2.39e+00    -  8.87e-03 1.94e-01f  1
   2  2.4969322e-01 1.14e+01 7.44e+00  -0.5 1.10e+00    -  2.84e-01 9.97e-01f  1
   3  4.8969893e-01 5.68e+00 2.15e+00  -2.4 1.00e+00    -  4.88e-01 9.94e-01h  1
   4  8.8986377e-01 2.44e+00 1.45e+00  -1.4 8.25e-01    -  8.26e-01 1.00e+00h  1
   5  1.5561562e+00 1.10e+00 6.79e+00  -1.9 2.63e+00    -  1.06e-01 9.98e-01h  1
   6  1.8343929e+00 6.42e-01 3.41e+00  -2.1 1.79e+00    -  3.47e-01 4.94e-01h  1
   7  1.9998834e+00 2.19e-01 1.78e+00  -2.2 2.63e+00    -  3.46e-01 7.20e-01h  1
   8  2.0122065e+00 1.66e-01 2.55e+00  -2.3 1.35e+00    -  7.33e-01 2.32e-01h  1
   9  1.9142448e+00 0.00e+00 2.83e+00  -2.0 2.22e+00    -  2.22e-01 8.80e-01f  1
iter    objective    inf_pr   inf_du lg(mu)  ||d||  lg(rg) alpha_du alpha_pr  ls
  10  1.7256882e+00 7.46e-01 1.20e+00  -8.0 3.31e+00    -  1.44e-01 6.40e-01h  1
  11  1.8228941e+00 0.00e+00 2.93e+00  -1.6 9.98e-01    -  3.07e-02 1.00e+00f  1
  12  1.7067756e+00 0.00e+00 4.34e-01  -1.9 7.83e-01    -  6.44e-01 1.00e+00h  1
  13  1.5585733e+00 0.00e+00 2.75e-01  -1.7 2.22e+00    -  8.09e-01 3.67e-01h  2
  14  1.3735948e+00 0.00e+00 1.23e-01  -2.4 6.89e-01    -  9.98e-01 1.00e+00h  1
  15  1.2692803e+00 2.99e-02 3.68e-02  -2.8 3.65e-01    -  9.78e-01 1.00e+00h  1
  16  1.2067501e+00 9.47e-04 3.32e-02  -3.0 2.82e-01    -  9.85e-01 9.97e-01h  1
  17  1.2458551e+00 0.00e+00 2.37e-01  -2.8 9.96e-02    -  5.18e-01 1.00e+00h  1
  18  1.2060045e+00 4.08e-04 8.67e-03  -3.4 1.23e-01    -  1.00e+00 9.76e-01h  1
  19  1.1943936e+00 0.00e+00 1.10e-02  -3.6 8.73e-02    -  9.60e-01 1.00e+00h  1
iter    objective    inf_pr   inf_du lg(mu)  ||d||  lg(rg) alpha_du alpha_pr  ls
  20  1.1891554e+00 0.00e+00 7.11e-03  -3.9 3.65e-02    -  1.00e+00 9.82e-01h  1
  21  1.1880970e+00 7.81e-05 1.76e-01  -4.7 1.54e-02    -  1.00e+00 5.56e-01h  1
  22  1.1882392e+00 0.00e+00 4.50e-04  -4.3 6.70e-03    -  1.00e+00 1.00e+00h  1
  23  1.1876500e+00 8.91e-08 4.26e-02  -5.0 1.57e-02    -  9.97e-01 7.90e-01h  1
  24  1.1875644e+00 0.00e+00 8.10e-02  -5.6 1.18e-02    -  1.00e+00 6.02e-01h  1
  25  1.1875326e+00 0.00e+00 8.51e-03  -6.2 2.33e-03    -  1.00e+00 9.09e-01h  1
  26  1.1875256e+00 7.10e-07 8.24e-05  -7.5 1.29e-03    -  1.00e+00 9.96e-01h  1
  27  1.1875255e+00 1.74e-08 8.92e-07  -9.6 1.84e-04    -  1.00e+00 1.00e+00h  1
  28  1.1875255e+00 0.00e+00 4.14e-09 -11.0 3.19e-06    -  1.00e+00 1.00e+00h  1

Number of Iterations....: 28

                                   (scaled)                 (unscaled)
Objective...............:   1.1875255167911800e+00    1.1875255167911800e+00
Dual infeasibility......:   4.1437653889264416e-09    4.1437653889264416e-09
Constraint violation....:   0.0000000000000000e+00    0.0000000000000000e+00
Variable bound violation:   0.0000000000000000e+00    0.0000000000000000e+00
Complementarity.........:   1.0206837956627894e-11    1.0206837956627894e-11
Overall NLP error.......:   4.1437653889264416e-09    4.1437653889264416e-09


Number of objective function evaluations             = 32
Number of objective gradient evaluations             = 29
Number of equality constraint evaluations            = 0
Number of inequality constraint evaluations          = 32
Number of equality constraint Jacobian evaluations   = 0
Number of inequality constraint Jacobian evaluations = 29
Number of Lagrangian Hessian evaluations             = 0
Total seconds in IPOPT                               = 8.787

EXIT: Optimal Solution Found.
